
Gurobi 9.1.2 (win64, Java) logging started Fri Nov 12 00:55:36 2021

Academic license - for non-commercial use only - expires 2022-10-30
Gurobi Optimizer version 9.1.2 build v9.1.2rc0 (win64)
Thread count: 6 physical cores, 12 logical processors, using up to 12 threads
Optimize a model with 30 rows, 200 columns and 400 nonzeros
Model fingerprint: 0xe67963e8
Variable types: 0 continuous, 200 integer (200 binary)
Coefficient statistics:
  Matrix range     [1e+00, 1e+03]
  Objective range  [4e+01, 8e+02]
  Bounds range     [1e+00, 1e+00]
  RHS range        [1e+00, 9e+02]
Found heuristic solution: objective 4244.0000000
Presolve removed 4 rows and 106 columns
Presolve time: 0.00s
Presolved: 26 rows, 94 columns, 188 nonzeros
Variable types: 0 continuous, 94 integer (94 binary)
Presolved: 26 rows, 94 columns, 188 nonzeros


Root relaxation: objective 5.890142e+03, 62 iterations, 0.00 seconds

    Nodes    |    Current Node    |     Objective Bounds      |     Work
 Expl Unexpl |  Obj  Depth IntInf | Incumbent    BestBd   Gap | It/Node Time

     0     0 5890.14200    0    7 4244.00000 5890.14200  38.8%     -    0s
H    0     0                    5373.0000000 5890.14200  9.62%     -    0s
H    0     0                    5558.0000000 5890.14200  5.98%     -    0s
H    0     0                    5617.0000000 5884.55354  4.76%     -    0s
     0     0 5827.50682    0    5 5617.00000 5827.50682  3.75%     -    0s
H    0     0                    5688.0000000 5827.50682  2.45%     -    0s
H    0     0                    5751.0000000 5827.50682  1.33%     -    0s
     0     0 5813.45014    0    6 5751.00000 5813.45014  1.09%     -    0s
     0     0 5812.74864    0   16 5751.00000 5812.74864  1.07%     -    0s
     0     0 5810.81732    0   13 5751.00000 5810.81732  1.04%     -    0s
     0     0 5810.56789    0   14 5751.00000 5810.56789  1.04%     -    0s
     0     0 5807.64615    0   12 5751.00000 5807.64615  0.98%     -    0s
     0     0 5804.63859    0   21 5751.00000 5804.63859  0.93%     -    0s
     0     0 5803.70273    0   23 5751.00000 5803.70273  0.92%     -    0s
     0     0 5803.23310    0   23 5751.00000 5803.23310  0.91%     -    0s
     0     0 5797.86604    0   12 5751.00000 5797.86604  0.81%     -    0s
     0     0 5797.86604    0    2 5751.00000 5797.86604  0.81%     -    0s
     0     0 5797.86604    0    2 5751.00000 5797.86604  0.81%     -    0s
     0     0 5797.86604    0   15 5751.00000 5797.86604  0.81%     -    0s
     0     0 5795.99739    0   21 5751.00000 5795.99739  0.78%     -    0s
     0     0 5791.65258    0   21 5751.00000 5791.65258  0.71%     -    0s
     0     0 5773.84321    0   24 5751.00000 5773.84321  0.40%     -    0s
     0     0 5770.44851    0    6 5751.00000 5770.44851  0.34%     -    0s
     0     0 5770.10417    0   28 5751.00000 5770.10417  0.33%     -    0s
     0     0 5770.08296    0   21 5751.00000 5770.08296  0.33%     -    0s
     0     0 5757.62690    0   16 5751.00000 5757.62690  0.12%     -    0s
     0     0 5751.00000    0   22 5751.00000 5751.00000  0.00%     -    0s

Cutting planes:
  Gomory: 3
  Cover: 7
  Clique: 2
  MIR: 5
  Mod-K: 1

Explored 1 nodes (295 simplex iterations) in 0.26 seconds
Thread count was 12 (of 12 available processors)

Solution count 6: 5751 5688 5617 ... 4244

Optimal solution found (tolerance 1.00e-12)
Best objective 5.751000000000e+03, best bound 5.751000000000e+03, gap 0.0000%
